c SAT problem
p wcnf 215 1046
1 -60 -75 0
1 60 -3150 0
1 60 -61 0
1 60 -3135 0
1 75 -76 0
1 75 -60 0
1 -75 3165 0
1 -75 3135 0
1 -90 3075 0
1 -90 3150 0
1 -90 -3120 0
1 -90 -3090 0
1 90 3165 0
1 -105 3075 0
1 -105 106 0
1 105 3120 0
1 105 3135 0
1 3120 -3121 0
1 -3120 -181 0
1 3120 -90 0
1 -3120 -60 0
1 -3135 -3136 0
1 -3135 -196 0
1 -3135 165 0
1 3135 135 0
1 3135 105 0
1 -3135 -181 0
1 3135 -150 0
1 -3135 90 0
1 -3150 196 0
1 -3150 -166 0
1 -3150 -3151 0
1 -3150 -181 0
1 3150 -60 0
1 -3150 3165 0
1 -3165 -166 0
1 3165 105 0
1 3165 -75 0
1 3165 -121 0
1 -3165 90 0
1 3165 3166 0
1 120 121 0
1 135 -3075 0
1 135 136 0
1 135 3120 0
1 -150 -3105 0
1 -150 -3015 0
1 150 3030 0
1 150 3000 0
1 165 -3105 0
1 -165 3075 0
1 165 166 0
1 -165 3015 0
1 -165 150 0
1 3060 225 0
1 -3060 3075 0
1 -3060 105 0
1 3060 150 0
1 -3060 255 0
1 -3075 225 0
1 -3075 3076 0
1 3075 210 0
1 -3075 180 0
1 3075 120 0
1 -3075 90 0
1 -3075 255 0
1 -3090 -196 0
1 -3090 -165 0
1 -3090 -135 0
1 -3090 -211 0
1 -3090 -3091 0
1 -3090 -181 0
1 -3090 90 0
1 3090 -255 0
1 3105 3106 0
1 3105 -105 0
1 -180 195 0
1 -180 -181 0
1 -195 3045 0
1 195 180 0
1 -195 -3060 0
1 -210 -211 0
1 210 3030 0
1 225 226 0
1 225 -3045 0
1 3000 -225 0
1 -3000 210 0
1 -3000 -180 0
1 3000 -150 0
1 -3000 3001 0
1 3000 315 0
1 3015 225 0
1 3015 180 0
1 3030 225 0
1 -3030 -3045 0
1 -3030 -150 0
1 3030 -3031 0
1 3030 255 0
1 -3045 180 0
1 3045 -3030 0
1 3045 -285 0
1 3045 -255 0
1 -61 -76 0
1 -61 -60 0
1 61 62 0
1 76 -3315 0
1 76 -61 0
1 91 -3300 0
1 -91 -3270 0
1 -91 -106 0
1 -91 -3255 0
1 -106 -3300 0
1 106 3240 0
1 -106 105 0
1 -106 107 0
1 -106 3345 0
1 106 3315 0
1 3300 -166 0
1 -3300 -3301 0
1 3300 136 0
1 3300 -106 0
1 3300 3315 0
1 -3300 -151 0
1 -3300 -121 0
1 -3300 -91 0
1 3300 61 0
1 3315 -136 0
1 3315 106 0
1 3315 76 0
1 -3315 3316 0
1 -3315 151 0
1 -3315 -121 0
1 3315 -91 0
1 -3330 -197 0
1 -3330 167 0
1 -3330 137 0
1 -3330 -3345 0
1 -3330 -152 0
1 3330 91 0
1 -3345 167 0
1 -3345 182 0
1 -3345 -91 0
1 -121 3270 0
1 -121 -3285 0
1 121 122 0
1 -121 3165 0
1 -136 3270 0
1 -136 -135 0
1 -136 -3240 0
1 -136 137 0
1 -136 3285 0
1 151 -3210 0
1 151 3180 0
1 151 3255 0
1 -151 3195 0
1 -166 -3255 0
1 166 3300 0
1 -166 -167 0
1 166 3210 0
1 -166 -3285 0
1 166 -151 0
1 3240 -256 0
1 3240 3255 0
1 -3240 226 0
1 -3240 -166 0
1 3240 -3241 0
1 -3240 -181 0
1 3240 -121 0
1 -3255 226 0
1 3255 -196 0
1 3255 166 0
1 -3255 136 0
1 -3255 151 0
1 3270 227 0
1 -3270 -166 0
1 -3270 3271 0
1 3270 136 0
1 -3270 241 0
1 3270 3285 0
1 -3270 121 0
1 -3285 -227 0
1 3285 -197 0
1 -3285 -3270 0
1 3285 136 0
1 3285 106 0
1 3285 151 0
1 -3285 -3286 0
1 -181 3105 0
1 181 -196 0
1 -181 3180 0
1 181 -3150 0
1 -181 180 0
1 -181 -3255 0
1 -181 3225 0
1 181 -3195 0
1 -181 3135 0
1 -196 -3105 0
1 196 -197 0
1 196 -3240 0
1 196 -3210 0
1 -196 -3180 0
1 -196 3165 0
1 -211 3136 0
1 -211 3105 0
1 211 3180 0
1 211 -3090 0
1 -211 -212 0
1 -211 -3255 0
1 226 -225 0
1 226 -3105 0
1 -226 3240 0
1 226 3180 0
1 -226 3151 0
1 -226 -3121 0
1 -226 -3090 0
1 -226 -3255 0
1 226 3225 0
1 226 3195 0
1 -3180 226 0
1 -3180 -196 0
1 3180 -270 0
1 3180 3181 0
1 3180 -181 0
1 3180 -151 0
1 -3180 3195 0
1 3195 -3180 0
1 -3195 -301 0
1 3195 211 0
1 3195 151 0
1 -3195 285 0
1 -3210 -226 0
1 -3210 166 0
1 -3210 -271 0
1 -3210 211 0
1 -3210 -181 0
1 3210 316 0
1 -3210 286 0
1 3225 -196 0
1 -3225 -3210 0
1 240 255 0
1 255 3105 0
1 -255 3136 0
1 -255 3045 0
1 -255 -3090 0
1 255 -3060 0
1 -255 3030 0
1 270 3121 0
1 270 3061 0
1 270 285 0
1 285 3045 0
1 285 -3121 0
1 285 3061 0
1 -3121 -270 0
1 3121 240 0
1 -3121 -3120 0
1 -3121 211 0
1 -3121 -376 0
1 -3136 330 0
1 3136 -300 0
1 -3136 -211 0
1 3136 -3135 0
1 3136 -376 0
1 3136 -315 0
1 3136 285 0
1 -3151 -361 0
1 -3151 211 0
1 -3151 -346 0
1 -3166 -226 0
1 3166 -361 0
1 -3166 -211 0
1 -3166 -3165 0
1 -3166 -376 0
1 -3166 285 0
1 -3166 -3167 0
1 -3166 255 0
1 300 3106 0
1 300 3076 0
1 -300 3015 0
1 300 3121 0
1 -300 3000 0
1 -315 -3076 0
1 315 300 0
1 -315 3121 0
1 315 3091 0
1 315 3061 0
1 315 -3000 0
1 -315 316 0
1 330 -3016 0
1 330 -3091 0
1 330 -3031 0
1 330 3001 0
1 -345 3046 0
1 345 -3061 0
1 -345 -3031 0
1 -345 3001 0
1 -345 -346 0
1 -3061 300 0
1 3061 -345 0
1 3061 315 0
1 -3061 285 0
1 3076 435 0
1 3076 345 0
1 3091 3106 0
1 -3091 391 0
1 3091 300 0
1 -3091 3090 0
1 -3091 -3092 0
1 -3091 -285 0
1 -3106 391 0
1 3106 -361 0
1 3106 300 0
1 -3106 -435 0
1 -3106 -3091 0
1 3106 406 0
1 3106 285 0
1 360 3046 0
1 360 -361 0
1 360 375 0
1 -360 3001 0
1 -375 3076 0
1 -375 -3046 0
1 -375 360 0
1 375 3016 0
1 -375 3061 0
1 375 3001 0
1 390 -3076 0
1 390 3046 0
1 390 -391 0
1 -390 3061 0
1 -405 -3016 0
1 3001 -3016 0
1 3016 -390 0
1 3016 3015 0
1 3016 360 0
1 -3016 -3017 0
1 -3016 330 0
1 -3016 375 0
1 -3031 -450 0
1 3031 390 0
1 -3031 465 0
1 3031 -3030 0
1 -3031 -345 0
1 3046 -480 0
1 -3046 -450 0
1 -3046 -420 0
1 -3046 -3045 0
1 -3046 -390 0
1 -3046 -360 0
1 -3046 465 0
1 3046 3031 0
1 3046 -435 0
1 3046 345 0
1 -77 -3495 0
1 -77 -3510 0
1 92 -3495 0
1 -92 3465 0
1 -92 -107 0
1 92 -3510 0
1 92 3480 0
1 92 -3450 0
1 107 -3495 0
1 -107 3465 0
1 107 -3435 0
1 107 -3420 0
1 3480 167 0
1 -3480 77 0
1 3480 122 0
1 -3495 3480 0
1 -3495 3496 0
1 3495 152 0
1 -3495 -92 0
1 3510 -3525 0
1 -3510 92 0
1 3510 62 0
1 3525 -107 0
1 3525 -77 0
1 3525 92 0
1 122 -3465 0
1 -122 -3435 0
1 -122 3420 0
1 -137 -3465 0
1 -137 3435 0
1 137 -3450 0
1 -137 -3345 0
1 -137 3420 0
1 -152 3330 0
1 152 3495 0
1 152 -3435 0
1 152 3345 0
1 -152 -151 0
1 -167 3480 0
1 -167 -3465 0
1 167 -3435 0
1 167 3345 0
1 -167 3450 0
1 -167 3390 0
1 -3420 257 0
1 3420 -167 0
1 -3420 -242 0
1 3420 122 0
1 -3420 92 0
1 3435 -197 0
1 3435 167 0
1 -3435 152 0
1 3450 -257 0
1 3450 -167 0
1 3450 137 0
1 -3450 152 0
1 3465 137 0
1 3465 3466 0
1 -3465 3450 0
1 3465 242 0
1 3465 122 0
1 -3465 92 0
1 -182 -3300 0
1 -182 -3345 0
1 -182 -3285 0
1 -182 3420 0
1 182 -3390 0
1 197 -3375 0
1 -197 -3315 0
1 212 -3360 0
1 212 227 0
1 212 3331 0
1 212 -3270 0
1 -212 3346 0
1 -212 -3285 0
1 -212 3390 0
1 -227 -226 0
1 227 -3301 0
1 -227 3375 0
1 -227 212 0
1 -227 3285 0
1 -3360 256 0
1 3360 227 0
1 3360 167 0
1 3360 3375 0
1 3360 -152 0
1 -3375 -227 0
1 -3375 197 0
1 -3375 167 0
1 -3375 302 0
1 -3375 -271 0
1 -3375 -212 0
1 3375 -182 0
1 -3375 286 0
1 -3390 257 0
1 -3390 -3391 0
1 -3390 302 0
1 -3390 212 0
1 -3390 152 0
1 -3405 -257 0
1 3405 -167 0
1 3405 -3406 0
1 3405 272 0
1 -3405 212 0
1 3405 152 0
1 241 256 0
1 241 3210 0
1 241 3375 0
1 -241 242 0
1 256 257 0
1 256 -3331 0
1 -256 3375 0
1 256 241 0
1 -256 -3346 0
1 -256 3316 0
1 256 3225 0
1 271 3331 0
1 -271 -270 0
1 271 -3346 0
1 271 -3256 0
1 -271 -3225 0
1 -286 -3301 0
1 286 271 0
1 286 -3225 0
1 -3301 256 0
1 3301 362 0
1 -3301 331 0
1 -3301 -241 0
1 3301 -212 0
1 -3301 316 0
1 -3316 -362 0
1 -3316 301 0
1 3316 271 0
1 -3316 -346 0
1 -3331 256 0
1 -3331 -302 0
1 -3331 -271 0
1 -3331 3346 0
1 -3331 -212 0
1 -3331 -347 0
1 3331 317 0
1 -3346 3331 0
1 -3346 -3347 0
1 3346 212 0
1 -3346 -377 0
1 3346 347 0
1 3346 -317 0
1 -301 -3210 0
1 -301 302 0
1 301 -3316 0
1 -301 -3286 0
1 301 -3225 0
1 -301 -3195 0
1 301 -3166 0
1 -316 -3271 0
1 -316 -3241 0
1 -316 -3195 0
1 316 -3151 0
1 316 3316 0
1 316 3225 0
1 316 -315 0
1 331 3301 0
1 -331 -330 0
1 -331 346 0
1 -331 3166 0
1 346 -3301 0
1 346 3271 0
1 -346 3241 0
1 346 3256 0
1 346 3226 0
1 346 -3196 0
1 -3241 421 0
1 -3241 -3242 0
1 3241 -331 0
1 -3241 436 0
1 -3241 406 0
1 3241 346 0
1 -3241 286 0
1 -3256 -376 0
1 3256 -286 0
1 -3271 -3270 0
1 3271 -392 0
1 -3271 3272 0
1 -3271 331 0
1 -3271 407 0
1 -3271 -286 0
1 -3286 3271 0
1 -3286 -392 0
1 -3286 331 0
1 -3286 -271 0
1 -3286 436 0
1 3286 -407 0
1 3286 377 0
1 -3286 -316 0
1 361 -3241 0
1 361 362 0
1 361 -3211 0
1 361 -3196 0
1 -376 -3136 0
1 376 -361 0
1 -376 -3241 0
1 376 3211 0
1 -376 -3181 0
1 376 3151 0
1 -376 3121 0
1 376 3256 0
1 391 3106 0
1 -391 390 0
1 391 3241 0
1 -391 -3091 0
1 391 -406 0
1 -391 -3256 0
1 -391 3167 0
1 -406 -3106 0
1 -406 -3241 0
1 -406 -3211 0
1 406 3122 0
1 406 3091 0
1 406 3226 0
1 3181 481 0
1 -3181 -450 0
1 -3181 -420 0
1 3181 3180 0
1 -3181 -3182 0
1 -3181 496 0
1 3181 -406 0
1 -3196 420 0
1 -3196 -361 0
1 3196 -331 0
1 -3196 346 0
1 -3196 -3197 0
1 3211 -451 0
1 -3211 -421 0
1 -3211 391 0
1 3211 -3226 0
1 3211 3210 0
1 3211 -496 0
1 3211 -436 0
1 -3226 -481 0
1 -3226 451 0
1 3226 391 0
1 3226 -466 0
1 3226 346 0
1 -420 3106 0
1 420 -3152 0
1 -420 -3122 0
1 420 3196 0
1 -420 3167 0
1 -435 3137 0
1 -435 -3106 0
1 -435 3076 0
1 -435 3122 0
1 -450 -3107 0
1 450 3077 0
1 450 -3046 0
1 -450 3031 0
1 465 -3107 0
1 -465 466 0
1 -465 3031 0
1 465 3196 0
1 3122 450 0
1 3122 556 0
1 3122 -525 0
1 3122 495 0
1 3122 -3121 0
1 -3122 -510 0
1 3137 3136 0
1 -3137 -450 0
1 -3137 391 0
1 3137 556 0
1 -3137 435 0
1 -3137 -510 0
1 3152 -526 0
1 3152 -3151 0
1 -3152 -541 0
1 3167 -450 0
1 3167 420 0
1 -3167 -496 0
1 -3167 3152 0
1 3167 -435 0
1 -3167 -541 0
1 480 -481 0
1 -480 3107 0
1 -480 3077 0
1 480 -3016 0
1 -480 -495 0
1 -480 -3092 0
1 480 -3062 0
1 480 3001 0
1 -495 -3137 0
1 495 -3077 0
1 495 -3122 0
1 510 -3017 0
1 -510 -3092 0
1 -510 -3002 0
1 -510 511 0
1 -525 -3137 0
1 525 3122 0
1 -525 3062 0
1 525 510 0
1 -3062 -450 0
1 -3062 -3077 0
1 3062 585 0
1 3062 495 0
1 3062 -3061 0
1 3062 570 0
1 3077 -480 0
1 -3077 -450 0
1 3077 -585 0
1 -3077 -3062 0
1 3077 510 0
1 3092 495 0
1 3092 465 0
1 -3092 571 0
1 3092 -541 0
1 3107 -450 0
1 -3107 3106 0
1 3107 541 0
1 3107 510 0
1 540 -3047 0
1 -540 3017 0
1 540 555 0
1 540 3062 0
1 540 -3032 0
1 -540 3002 0
1 555 -3017 0
1 555 -556 0
1 555 -3002 0
1 570 -3077 0
1 -570 585 0
1 -570 3062 0
1 570 571 0
1 -585 -3002 0
1 585 3077 0
1 -585 -3017 0
1 585 570 0
1 -3002 -510 0
1 -3017 3002 0
1 3017 3016 0
1 3017 -585 0
1 -3017 -525 0
1 -3017 -570 0
1 3032 3047 0
1 -3032 585 0
1 3032 555 0
1 -3032 -525 0
1 3032 -570 0
1 -3032 -540 0
1 3032 -510 0
1 3047 -3046 0
1 -3047 -525 0
1 3047 510 0
1 242 -257 0
1 -242 3435 0
1 242 241 0
1 -242 -3450 0
1 -257 3496 0
1 257 -242 0
1 -257 3511 0
1 257 3450 0
1 257 3420 0
1 -272 -3466 0
1 272 -3436 0
1 272 271 0
1 -272 3421 0
1 272 -3390 0
1 287 3466 0
1 287 3436 0
1 -287 -272 0
1 -287 -3511 0
1 -287 -3481 0
1 -287 -3451 0
1 -287 3390 0
1 3481 257 0
1 3481 332 0
1 -3481 -302 0
1 3481 -272 0
1 3481 -242 0
1 3481 317 0
1 3481 287 0
1 3496 -257 0
1 3496 3495 0
1 3496 -302 0
1 3496 -272 0
1 -3511 -257 0
1 -3511 -3526 0
1 3526 -272 0
1 -302 3331 0
1 -302 3496 0
1 -302 -3436 0
1 -302 3375 0
1 302 -3346 0
1 -302 -3481 0
1 -302 -3451 0
1 317 3496 0
1 -317 -302 0
1 317 -3375 0
1 -317 3481 0
1 317 3451 0
1 -317 316 0
1 317 -3421 0
1 332 -3361 0
1 -332 -3331 0
1 332 3436 0
1 332 -3346 0
1 -332 3451 0
1 -347 -3496 0
1 347 332 0
1 347 -3346 0
1 347 -3481 0
1 -347 -3451 0
1 347 3391 0
1 3421 -362 0
1 -3421 -3436 0
1 3421 407 0
1 3421 -3420 0
1 -3421 -3422 0
1 3421 -287 0
1 -3436 -422 0
1 3436 362 0
1 -3436 3435 0
1 3436 -302 0
1 -3436 272 0
1 3436 407 0
1 3436 377 0
1 3436 347 0
1 -3436 -3421 0
1 -3451 422 0
1 3451 332 0
1 3451 302 0
1 3451 3450 0
1 -3451 -3452 0
1 -3466 3465 0
1 -3466 3467 0
1 -3466 -302 0
1 3466 -272 0
1 -3466 347 0
1 3466 -317 0
1 -3466 287 0
1 -362 -3331 0
1 362 3271 0
1 -362 -361 0
1 -362 -3406 0
1 -377 -3331 0
1 377 -362 0
1 377 -3436 0
1 377 376 0
1 -392 3332 0
1 -392 -3302 0
1 392 3347 0
1 392 3317 0
1 -407 -392 0
1 407 3406 0
1 -407 -406 0
1 407 3391 0
1 3361 3360 0
1 -3361 -482 0
1 3361 421 0
1 3361 392 0
1 -3361 -332 0
1 3361 466 0
1 -3361 377 0
1 -3376 -3361 0
1 -3376 -451 0
1 -3376 362 0
1 3376 -3377 0
1 3376 436 0
1 3391 3392 0
1 -3391 -482 0
1 3391 -422 0
1 3391 -362 0
1 3391 -497 0
1 3391 -437 0
1 3391 407 0
1 3391 347 0
1 3406 452 0
1 -3406 -422 0
1 3406 -437 0
1 -3406 347 0
1 -421 3332 0
1 421 422 0
1 -421 -3271 0
1 -421 3302 0
1 -421 436 0
1 -421 -3226 0
1 436 3332 0
1 -436 3241 0
1 -436 3211 0
1 -436 -3347 0
1 -436 437 0
1 451 450 0
1 451 3302 0
1 451 3272 0
1 451 -3376 0
1 451 3347 0
1 466 -3302 0
1 466 -3272 0
1 -466 3242 0
1 -466 -3376 0
1 -466 -467 0
1 3302 421 0
1 -3302 3301 0
1 -3302 -392 0
1 -3302 -557 0
1 3302 -466 0
1 -3302 436 0
1 3302 407 0
1 -3302 -511 0
1 -3317 -481 0
1 3317 -3302 0
1 -3317 392 0
1 -3317 526 0
1 3317 -3316 0
1 3332 -512 0
1 3332 482 0
1 -3332 451 0
1 -3332 -557 0
1 -3332 -497 0
1 -3332 3347 0
1 -3332 436 0
1 -3347 3332 0
1 3347 421 0
1 3347 -392 0
1 -3347 557 0
1 3347 -527 0
1 -3347 497 0
1 481 480 0
1 -481 -3211 0
1 481 3181 0
1 481 496 0
1 -481 3196 0
1 -496 -3272 0
1 496 3181 0
1 496 495 0
1 -496 -3257 0
1 -511 512 0
1 -511 3272 0
1 -511 3287 0
1 511 -3257 0
1 511 -3167 0
1 -526 3302 0
1 526 3242 0
1 526 -525 0
1 526 -3152 0
1 -526 -3287 0
1 -526 -3227 0
1 526 -3197 0
1 -3242 -3241 0
1 -3242 586 0
1 -3242 526 0
1 -3242 496 0
1 -3242 541 0
1 -3242 511 0
1 3257 481 0
1 -3257 -586 0
1 -3257 571 0
1 -3272 557 0
1 -3272 -526 0
1 3272 496 0
1 3272 -3287 0
1 3272 -511 0
1 -3287 481 0
1 3287 451 0
1 3287 526 0
1 3287 3286 0
1 -541 3137 0
1 541 -556 0
1 541 -3152 0
1 -541 3227 0
1 541 540 0
1 541 -3197 0
1 -541 -3167 0
1 -556 3107 0
1 556 -555 0
1 -556 3212 0
1 -556 -557 0
1 -556 3152 0
1 556 3197 0
1 556 3257 0
1 571 3107 0
1 571 586 0
1 571 -3182 0
1 -571 -3227 0
1 -571 572 0
1 586 -585 0
1 -586 3242 0
1 -586 587 0
1 586 3227 0
1 -586 -3257 0
1 586 571 0
1 -3182 -586 0
1 3182 556 0
1 -3182 -3197 0
1 -3197 586 0
1 -3197 -526 0
1 -3197 3182 0
1 3197 -571 0
1 -3212 3227 0
1 3227 586 0
1 3227 556 0
1 -3227 571 0
1 -422 -3527 0
1 -422 3466 0
1 -422 3436 0
1 -422 3406 0
1 422 437 0
1 422 -3512 0
1 422 3421 0
1 422 3391 0
1 -437 -3512 0
1 -437 3482 0
1 437 -3391 0
1 452 -3497 0
1 452 3467 0
1 -452 -3406 0
1 -452 3512 0
1 452 -3422 0
1 452 -3391 0
1 467 -3497 0
1 467 3467 0
1 -467 -3437 0
1 467 3406 0
1 -467 -466 0
1 -467 3512 0
1 467 3482 0
1 467 -3452 0
1 3482 482 0
1 3482 452 0
1 3482 422 0
1 3482 -3497 0
1 3482 467 0
1 -3497 -512 0
1 3497 -527 0
1 -3497 497 0
1 -3497 -437 0
1 3497 -3482 0
1 3512 -422 0
1 -3512 3527 0
1 -3512 467 0
1 -3512 437 0
1 3512 3511 0
1 3527 422 0
1 -3527 3526 0
1 3527 -437 0
1 482 3361 0
1 -482 -3332 0
1 -482 -3497 0
1 -482 -497 0
1 -497 3497 0
1 -497 -3452 0
1 512 3332 0
1 -512 -3437 0
1 512 527 0
1 512 3407 0
1 512 -3377 0
1 512 -3422 0
1 -527 3392 0
1 -527 3467 0
1 -527 -3437 0
1 527 -526 0
1 527 -3407 0
1 527 -3482 0
1 -3422 -482 0
1 -3422 572 0
1 3437 -452 0
1 3437 497 0
1 3452 -482 0
1 -3452 -452 0
1 -3452 527 0
1 3452 467 0
1 3467 -3466 0
1 3467 -527 0
1 3467 467 0
1 -557 -556 0
1 -557 3407 0
1 557 3317 0
1 572 -3362 0
1 572 -3407 0
1 -572 3377 0
1 572 -3287 0
1 -572 571 0
1 587 -3392 0
1 -587 3287 0
1 587 -572 0
1 3362 -587 0
1 3362 -557 0
1 3362 -3377 0
1 -3362 572 0
1 3377 587 0
1 3377 -557 0
1 3392 -527 0
1 3392 -3407 0
1 -3407 -512 0
1 3407 572 0
